\ Date: 1921.10
\ Cycle: 02
\ Solver: XA

\ objective function 
Maximize
+ 6.0 x
+ 6.0 y
+ 6.0 z

\ constraint
Subject To
g1:  + x + y + z <= 200.0
g2:  + x = 10.0

\ dvar
Bounds

End




\ objective value:   1200.0
